c An instance of conditional planning (by rintanen@informatik.uni-freiburg.de)
p cnf 164 1185
e 16 17 18 19 20 21 22 23 24 25 26 27 28 29 30 31 32 33 34 35 36 37 38 39 40 41 42 43 44 45 46 47 48 49 50 51 52 53 54 55 56 57 58 59 60 61 62 63 64 65 66 67 68 69 70 71 72 73 74 75 76 77 78 79 80 81 82 83 84 85 86 87 88 89 90 91 92 93 94 95 96 97 98 99 100 101 102 103 104 105 106 107 108 109 110 111 112 113 114 115 116 117 118 119 120 121 122 123 124 125 0
a 138 137 136 139 0
e 1 2 3 4 5 6 7 8 9 10 11 12 13 14 15 126 127 128 129 130 131 132 133 134 135 140 141 142 143 144 145 146 147 148 149 150 151 152 153 154 155 156 157 158 159 160 161 162 163 164 0
-138 -140 136 137 139 0
-138 -141 136 137 139 0
-138 -142 136 137 139 0
-138 -143 136 137 139 0
-138 -144 136 137 139 0
-138 -145 136 137 139 0
-138 -146 136 137 139 0
-138 136 137 139 147 0
-138 -148 136 137 139 0
-138 -149 136 137 139 0
-136 -137 -139 -140 138 0
-136 -137 -139 -141 138 0
-136 -137 -139 -142 138 0
-136 -137 -139 -143 138 0
-136 -137 -139 -144 138 0
-136 -137 -139 -145 138 0
-136 -137 -139 138 146 0
-136 -137 -139 -147 138 0
-136 -137 -139 -148 138 0
-136 -137 -139 -149 138 0
-136 -137 -140 138 139 0
-136 -137 -141 138 139 0
-136 -137 -142 138 139 0
-136 -137 -143 138 139 0
-136 -137 -144 138 139 0
-136 -137 138 139 145 0
-136 -137 -146 138 139 0
-136 -137 -147 138 139 0
-136 -137 -148 138 139 0
-136 -137 -149 138 139 0
-137 -139 -140 136 138 0
-137 -139 -141 136 138 0
-137 -139 -142 136 138 0
-137 -139 -143 136 138 0
-137 -139 136 138 144 0
-137 -139 -145 136 138 0
-137 -139 -146 136 138 0
-137 -139 -147 136 138 0
-137 -139 -148 136 138 0
-137 -139 -149 136 138 0
-137 -140 136 138 139 0
-137 -141 136 138 139 0
-137 -142 136 138 139 0
-137 136 138 139 143 0
-137 -144 136 138 139 0
-137 -145 136 138 139 0
-137 -146 136 138 139 0
-137 -147 136 138 139 0
-137 -148 136 138 139 0
-137 -149 136 138 139 0
-136 -139 -140 137 138 0
-136 -139 -141 137 138 0
-136 -139 137 138 142 0
-136 -139 -143 137 138 0
-136 -139 -144 137 138 0
-136 -139 -145 137 138 0
-136 -139 -146 137 138 0
-136 -139 -147 137 138 0
-136 -139 -148 137 138 0
-136 -139 -149 137 138 0
-136 -140 137 138 139 0
-136 137 138 139 141 0
-136 -142 137 138 139 0
-136 -143 137 138 139 0
-136 -144 137 138 139 0
-136 -145 137 138 139 0
-136 -146 137 138 139 0
-136 -147 137 138 139 0
-136 -148 137 138 139 0
-136 -149 137 138 139 0
-139 136 137 138 140 0
-139 -141 136 137 138 0
-139 -142 136 137 138 0
-139 -143 136 137 138 0
-139 -144 136 137 138 0
-139 -145 136 137 138 0
-139 -146 136 137 138 0
-139 -147 136 137 138 0
-139 -148 136 137 138 0
-139 -149 136 137 138 0
-140 136 137 138 139 0
-141 136 137 138 139 0
-142 136 137 138 139 0
-143 136 137 138 139 0
-144 136 137 138 139 0
-145 136 137 138 139 0
-146 136 137 138 139 0
-147 136 137 138 139 0
-148 136 137 138 139 0
136 137 138 139 149 0
-138 -139 -140 136 137 0
-138 -139 -141 136 137 0
-138 -139 -142 136 137 0
-138 -139 -143 136 137 0
-138 -139 -144 136 137 0
-138 -139 -145 136 137 0
-138 -139 -146 136 137 0
-138 -139 -147 136 137 0
-138 -139 136 137 148 0
-138 -139 -149 136 137 0
-150 0
-151 0
-152 0
-153 0
-154 0
-155 0
-156 0
-157 0
-158 0
-159 0
-160 0
-161 0
-162 0
-163 0
-164 0
-16 -164 0
-16 -154 0
-18 -155 0
-18 -164 0
-20 -156 0
-20 -164 0
-22 -157 0
-22 -164 0
-24 -158 0
-24 -164 0
-26 -159 0
-26 -164 0
-28 -160 0
-28 -164 0
-30 -161 0
-30 -164 0
-32 -162 0
-32 -164 0
-34 -163 0
-34 -164 0
-38 -150 0
-38 -154 0
-40 -150 0
-40 -155 0
-42 -150 0
-42 -156 0
-44 -150 0
-44 -157 0
-46 -150 0
-46 -158 0
-48 -150 0
-48 -159 0
-50 -150 0
-50 -160 0
-52 -150 0
-52 -161 0
-54 -150 0
-54 -162 0
-56 -150 0
-56 -163 0
-60 -151 0
-60 -154 0
-62 -151 0
-62 -155 0
-64 -151 0
-64 -156 0
-66 -151 0
-66 -157 0
-68 -151 0
-68 -158 0
-70 -151 0
-70 -159 0
-72 -151 0
-72 -160 0
-74 -151 0
-74 -161 0
-76 -151 0
-76 -162 0
-78 -151 0
-78 -163 0
-82 -152 0
-82 -154 0
-84 -152 0
-84 -155 0
-86 -152 0
-86 -156 0
-88 -152 0
-88 -157 0
-90 -152 0
-90 -158 0
-92 -152 0
-92 -159 0
-94 -152 0
-94 -160 0
-96 -152 0
-96 -161 0
-98 -152 0
-98 -162 0
-100 -152 0
-100 -163 0
-104 -153 0
-104 -154 0
-106 -153 0
-106 -155 0
-108 -153 0
-108 -156 0
-110 -153 0
-110 -157 0
-112 -153 0
-112 -158 0
-114 -153 0
-114 -159 0
-116 -153 0
-116 -160 0
-118 -153 0
-118 -161 0
-120 -153 0
-120 -162 0
-122 -153 0
-122 -163 0
-35 164 0
-57 150 0
-79 151 0
-101 152 0
-123 153 0
-16 2 0
-16 -126 0
-16 1 0
-18 3 0
-18 -127 0
-18 2 0
-20 4 0
-20 -128 0
-20 2 0
-22 5 0
-22 -129 0
-22 2 0
-24 6 0
-24 -130 0
-24 2 0
-26 7 0
-26 -131 0
-26 2 0
-28 8 0
-28 -132 0
-28 2 0
-30 9 0
-30 -133 0
-30 2 0
-32 10 0
-32 -134 0
-32 2 0
-34 11 0
-34 -135 0
-34 2 0
-38 12 0
-38 -126 0
-38 1 0
-40 12 0
-40 -127 0
-40 3 0
-42 12 0
-42 -128 0
-42 4 0
-44 12 0
-44 -129 0
-44 5 0
-46 12 0
-46 -130 0
-46 6 0
-48 12 0
-48 -131 0
-48 7 0
-50 12 0
-50 -132 0
-50 8 0
-52 12 0
-52 -133 0
-52 9 0
-54 12 0
-54 -134 0
-54 10 0
-56 12 0
-56 -135 0
-56 11 0
-60 13 0
-60 -126 0
-60 1 0
-62 13 0
-62 -127 0
-62 3 0
-64 13 0
-64 -128 0
-64 4 0
-66 13 0
-66 -129 0
-66 5 0
-68 13 0
-68 -130 0
-68 6 0
-70 13 0
-70 -131 0
-70 7 0
-72 13 0
-72 -132 0
-72 8 0
-74 13 0
-74 -133 0
-74 9 0
-76 13 0
-76 -134 0
-76 10 0
-78 13 0
-78 -135 0
-78 11 0
-82 14 0
-82 -126 0
-82 1 0
-84 14 0
-84 -127 0
-84 3 0
-86 14 0
-86 -128 0
-86 4 0
-88 14 0
-88 -129 0
-88 5 0
-90 14 0
-90 -130 0
-90 6 0
-92 14 0
-92 -131 0
-92 7 0
-94 14 0
-94 -132 0
-94 8 0
-96 14 0
-96 -133 0
-96 9 0
-98 14 0
-98 -134 0
-98 10 0
-100 14 0
-100 -135 0
-100 11 0
-104 15 0
-104 -126 0
-104 1 0
-106 15 0
-106 -127 0
-106 3 0
-108 15 0
-108 -128 0
-108 4 0
-110 15 0
-110 -129 0
-110 5 0
-112 15 0
-112 -130 0
-112 6 0
-114 15 0
-114 -131 0
-114 7 0
-116 15 0
-116 -132 0
-116 8 0
-118 15 0
-118 -133 0
-118 9 0
-120 15 0
-120 -134 0
-120 10 0
-122 15 0
-122 -135 0
-122 11 0
-2 -35 0
-12 -57 0
-13 -79 0
-14 -101 0
-15 -123 0
-1 16 38 60 82 104 154 0
-154 1 0
-2 16 18 20 22 24 26 28 30 32 34 164 0
-164 2 35 0
-126 149 0
-149 16 38 60 82 104 126 0
-3 18 40 62 84 106 155 0
-155 3 0
-127 140 0
-140 18 40 62 84 106 127 0
-4 20 42 64 86 108 156 0
-156 4 0
-128 141 0
-141 20 42 64 86 108 128 0
-5 22 44 66 88 110 157 0
-157 5 0
-129 142 0
-142 22 44 66 88 110 129 0
-6 24 46 68 90 112 158 0
-158 6 0
-130 143 0
-143 24 46 68 90 112 130 0
-7 26 48 70 92 114 159 0
-159 7 0
-131 144 0
-144 26 48 70 92 114 131 0
-8 28 50 72 94 116 160 0
-160 8 0
-132 145 0
-145 28 50 72 94 116 132 0
-9 30 52 74 96 118 161 0
-161 9 0
-133 146 0
-146 30 52 74 96 118 133 0
-10 32 54 76 98 120 162 0
-162 10 0
-134 147 0
-147 32 54 76 98 120 134 0
-11 34 56 78 100 122 163 0
-163 11 0
-135 148 0
-148 34 56 78 100 122 135 0
-12 38 40 42 44 46 48 50 52 54 56 150 0
-150 12 57 0
-13 60 62 64 66 68 70 72 74 76 78 151 0
-151 13 79 0
-14 82 84 86 88 90 92 94 96 98 100 152 0
-152 14 101 0
-15 104 106 108 110 112 114 116 118 120 122 153 0
-153 15 123 0
-16 -18 0
-17 -19 0
-16 -20 0
-17 -21 0
-16 -22 0
-17 -23 0
-16 -24 0
-17 -25 0
-16 -26 0
-17 -27 0
-16 -28 0
-17 -29 0
-16 -30 0
-17 -31 0
-16 -32 0
-17 -33 0
-16 -34 0
-17 -36 0
-16 -38 0
-17 -39 0
-16 -60 0
-17 -61 0
-16 -82 0
-17 -83 0
-16 -104 0
-17 -105 0
-16 -35 0
-17 -37 0
-18 -20 0
-19 -21 0
-18 -22 0
-19 -23 0
-18 -24 0
-19 -25 0
-18 -26 0
-19 -27 0
-18 -28 0
-19 -29 0
-18 -30 0
-19 -31 0
-18 -32 0
-19 -33 0
-18 -34 0
-19 -36 0
-18 -40 0
-19 -41 0
-18 -62 0
-19 -63 0
-18 -84 0
-19 -85 0
-18 -106 0
-19 -107 0
-18 -35 0
-19 -37 0
-20 -22 0
-21 -23 0
-20 -24 0
-21 -25 0
-20 -26 0
-21 -27 0
-20 -28 0
-21 -29 0
-20 -30 0
-21 -31 0
-20 -32 0
-21 -33 0
-20 -34 0
-21 -36 0
-20 -42 0
-21 -43 0
-20 -64 0
-21 -65 0
-20 -86 0
-21 -87 0
-20 -108 0
-21 -109 0
-20 -35 0
-21 -37 0
-22 -24 0
-23 -25 0
-22 -26 0
-23 -27 0
-22 -28 0
-23 -29 0
-22 -30 0
-23 -31 0
-22 -32 0
-23 -33 0
-22 -34 0
-23 -36 0
-22 -44 0
-23 -45 0
-22 -66 0
-23 -67 0
-22 -88 0
-23 -89 0
-22 -110 0
-23 -111 0
-22 -35 0
-23 -37 0
-24 -26 0
-25 -27 0
-24 -28 0
-25 -29 0
-24 -30 0
-25 -31 0
-24 -32 0
-25 -33 0
-24 -34 0
-25 -36 0
-24 -46 0
-25 -47 0
-24 -68 0
-25 -69 0
-24 -90 0
-25 -91 0
-24 -112 0
-25 -113 0
-24 -35 0
-25 -37 0
-26 -28 0
-27 -29 0
-26 -30 0
-27 -31 0
-26 -32 0
-27 -33 0
-26 -34 0
-27 -36 0
-26 -48 0
-27 -49 0
-26 -70 0
-27 -71 0
-26 -92 0
-27 -93 0
-26 -114 0
-27 -115 0
-26 -35 0
-27 -37 0
-28 -30 0
-29 -31 0
-28 -32 0
-29 -33 0
-28 -34 0
-29 -36 0
-28 -50 0
-29 -51 0
-28 -72 0
-29 -73 0
-28 -94 0
-29 -95 0
-28 -116 0
-29 -117 0
-28 -35 0
-29 -37 0
-30 -32 0
-31 -33 0
-30 -34 0
-31 -36 0
-30 -52 0
-31 -53 0
-30 -74 0
-31 -75 0
-30 -96 0
-31 -97 0
-30 -118 0
-31 -119 0
-30 -35 0
-31 -37 0
-32 -34 0
-33 -36 0
-32 -54 0
-33 -55 0
-32 -76 0
-33 -77 0
-32 -98 0
-33 -99 0
-32 -120 0
-33 -121 0
-32 -35 0
-33 -37 0
-34 -56 0
-36 -58 0
-34 -78 0
-36 -80 0
-34 -100 0
-36 -102 0
-34 -122 0
-36 -124 0
-34 -35 0
-36 -37 0
-38 -40 0
-39 -41 0
-38 -42 0
-39 -43 0
-38 -44 0
-39 -45 0
-38 -46 0
-39 -47 0
-38 -48 0
-39 -49 0
-38 -50 0
-39 -51 0
-38 -52 0
-39 -53 0
-38 -54 0
-39 -55 0
-38 -56 0
-39 -58 0
-38 -60 0
-39 -61 0
-38 -82 0
-39 -83 0
-38 -104 0
-39 -105 0
-38 -57 0
-39 -59 0
-40 -42 0
-41 -43 0
-40 -44 0
-41 -45 0
-40 -46 0
-41 -47 0
-40 -48 0
-41 -49 0
-40 -50 0
-41 -51 0
-40 -52 0
-41 -53 0
-40 -54 0
-41 -55 0
-40 -56 0
-41 -58 0
-40 -62 0
-41 -63 0
-40 -84 0
-41 -85 0
-40 -106 0
-41 -107 0
-40 -57 0
-41 -59 0
-42 -44 0
-43 -45 0
-42 -46 0
-43 -47 0
-42 -48 0
-43 -49 0
-42 -50 0
-43 -51 0
-42 -52 0
-43 -53 0
-42 -54 0
-43 -55 0
-42 -56 0
-43 -58 0
-42 -64 0
-43 -65 0
-42 -86 0
-43 -87 0
-42 -108 0
-43 -109 0
-42 -57 0
-43 -59 0
-44 -46 0
-45 -47 0
-44 -48 0
-45 -49 0
-44 -50 0
-45 -51 0
-44 -52 0
-45 -53 0
-44 -54 0
-45 -55 0
-44 -56 0
-45 -58 0
-44 -66 0
-45 -67 0
-44 -88 0
-45 -89 0
-44 -110 0
-45 -111 0
-44 -57 0
-45 -59 0
-46 -48 0
-47 -49 0
-46 -50 0
-47 -51 0
-46 -52 0
-47 -53 0
-46 -54 0
-47 -55 0
-46 -56 0
-47 -58 0
-46 -68 0
-47 -69 0
-46 -90 0
-47 -91 0
-46 -112 0
-47 -113 0
-46 -57 0
-47 -59 0
-48 -50 0
-49 -51 0
-48 -52 0
-49 -53 0
-48 -54 0
-49 -55 0
-48 -56 0
-49 -58 0
-48 -70 0
-49 -71 0
-48 -92 0
-49 -93 0
-48 -114 0
-49 -115 0
-48 -57 0
-49 -59 0
-50 -52 0
-51 -53 0
-50 -54 0
-51 -55 0
-50 -56 0
-51 -58 0
-50 -72 0
-51 -73 0
-50 -94 0
-51 -95 0
-50 -116 0
-51 -117 0
-50 -57 0
-51 -59 0
-52 -54 0
-53 -55 0
-52 -56 0
-53 -58 0
-52 -74 0
-53 -75 0
-52 -96 0
-53 -97 0
-52 -118 0
-53 -119 0
-52 -57 0
-53 -59 0
-54 -56 0
-55 -58 0
-54 -76 0
-55 -77 0
-54 -98 0
-55 -99 0
-54 -120 0
-55 -121 0
-54 -57 0
-55 -59 0
-56 -78 0
-58 -80 0
-56 -100 0
-58 -102 0
-56 -122 0
-58 -124 0
-56 -57 0
-58 -59 0
-60 -62 0
-61 -63 0
-60 -64 0
-61 -65 0
-60 -66 0
-61 -67 0
-60 -68 0
-61 -69 0
-60 -70 0
-61 -71 0
-60 -72 0
-61 -73 0
-60 -74 0
-61 -75 0
-60 -76 0
-61 -77 0
-60 -78 0
-61 -80 0
-60 -82 0
-61 -83 0
-60 -104 0
-61 -105 0
-60 -79 0
-61 -81 0
-62 -64 0
-63 -65 0
-62 -66 0
-63 -67 0
-62 -68 0
-63 -69 0
-62 -70 0
-63 -71 0
-62 -72 0
-63 -73 0
-62 -74 0
-63 -75 0
-62 -76 0
-63 -77 0
-62 -78 0
-63 -80 0
-62 -84 0
-63 -85 0
-62 -106 0
-63 -107 0
-62 -79 0
-63 -81 0
-64 -66 0
-65 -67 0
-64 -68 0
-65 -69 0
-64 -70 0
-65 -71 0
-64 -72 0
-65 -73 0
-64 -74 0
-65 -75 0
-64 -76 0
-65 -77 0
-64 -78 0
-65 -80 0
-64 -86 0
-65 -87 0
-64 -108 0
-65 -109 0
-64 -79 0
-65 -81 0
-66 -68 0
-67 -69 0
-66 -70 0
-67 -71 0
-66 -72 0
-67 -73 0
-66 -74 0
-67 -75 0
-66 -76 0
-67 -77 0
-66 -78 0
-67 -80 0
-66 -88 0
-67 -89 0
-66 -110 0
-67 -111 0
-66 -79 0
-67 -81 0
-68 -70 0
-69 -71 0
-68 -72 0
-69 -73 0
-68 -74 0
-69 -75 0
-68 -76 0
-69 -77 0
-68 -78 0
-69 -80 0
-68 -90 0
-69 -91 0
-68 -112 0
-69 -113 0
-68 -79 0
-69 -81 0
-70 -72 0
-71 -73 0
-70 -74 0
-71 -75 0
-70 -76 0
-71 -77 0
-70 -78 0
-71 -80 0
-70 -92 0
-71 -93 0
-70 -114 0
-71 -115 0
-70 -79 0
-71 -81 0
-72 -74 0
-73 -75 0
-72 -76 0
-73 -77 0
-72 -78 0
-73 -80 0
-72 -94 0
-73 -95 0
-72 -116 0
-73 -117 0
-72 -79 0
-73 -81 0
-74 -76 0
-75 -77 0
-74 -78 0
-75 -80 0
-74 -96 0
-75 -97 0
-74 -118 0
-75 -119 0
-74 -79 0
-75 -81 0
-76 -78 0
-77 -80 0
-76 -98 0
-77 -99 0
-76 -120 0
-77 -121 0
-76 -79 0
-77 -81 0
-78 -100 0
-80 -102 0
-78 -122 0
-80 -124 0
-78 -79 0
-80 -81 0
-82 -84 0
-83 -85 0
-82 -86 0
-83 -87 0
-82 -88 0
-83 -89 0
-82 -90 0
-83 -91 0
-82 -92 0
-83 -93 0
-82 -94 0
-83 -95 0
-82 -96 0
-83 -97 0
-82 -98 0
-83 -99 0
-82 -100 0
-83 -102 0
-82 -104 0
-83 -105 0
-82 -101 0
-83 -103 0
-84 -86 0
-85 -87 0
-84 -88 0
-85 -89 0
-84 -90 0
-85 -91 0
-84 -92 0
-85 -93 0
-84 -94 0
-85 -95 0
-84 -96 0
-85 -97 0
-84 -98 0
-85 -99 0
-84 -100 0
-85 -102 0
-84 -106 0
-85 -107 0
-84 -101 0
-85 -103 0
-86 -88 0
-87 -89 0
-86 -90 0
-87 -91 0
-86 -92 0
-87 -93 0
-86 -94 0
-87 -95 0
-86 -96 0
-87 -97 0
-86 -98 0
-87 -99 0
-86 -100 0
-87 -102 0
-86 -108 0
-87 -109 0
-86 -101 0
-87 -103 0
-88 -90 0
-89 -91 0
-88 -92 0
-89 -93 0
-88 -94 0
-89 -95 0
-88 -96 0
-89 -97 0
-88 -98 0
-89 -99 0
-88 -100 0
-89 -102 0
-88 -110 0
-89 -111 0
-88 -101 0
-89 -103 0
-90 -92 0
-91 -93 0
-90 -94 0
-91 -95 0
-90 -96 0
-91 -97 0
-90 -98 0
-91 -99 0
-90 -100 0
-91 -102 0
-90 -112 0
-91 -113 0
-90 -101 0
-91 -103 0
-92 -94 0
-93 -95 0
-92 -96 0
-93 -97 0
-92 -98 0
-93 -99 0
-92 -100 0
-93 -102 0
-92 -114 0
-93 -115 0
-92 -101 0
-93 -103 0
-94 -96 0
-95 -97 0
-94 -98 0
-95 -99 0
-94 -100 0
-95 -102 0
-94 -116 0
-95 -117 0
-94 -101 0
-95 -103 0
-96 -98 0
-97 -99 0
-96 -100 0
-97 -102 0
-96 -118 0
-97 -119 0
-96 -101 0
-97 -103 0
-98 -100 0
-99 -102 0
-98 -120 0
-99 -121 0
-98 -101 0
-99 -103 0
-100 -122 0
-102 -124 0
-100 -101 0
-102 -103 0
-104 -106 0
-105 -107 0
-104 -108 0
-105 -109 0
-104 -110 0
-105 -111 0
-104 -112 0
-105 -113 0
-104 -114 0
-105 -115 0
-104 -116 0
-105 -117 0
-104 -118 0
-105 -119 0
-104 -120 0
-105 -121 0
-104 -122 0
-105 -124 0
-104 -123 0
-105 -125 0
-106 -108 0
-107 -109 0
-106 -110 0
-107 -111 0
-106 -112 0
-107 -113 0
-106 -114 0
-107 -115 0
-106 -116 0
-107 -117 0
-106 -118 0
-107 -119 0
-106 -120 0
-107 -121 0
-106 -122 0
-107 -124 0
-106 -123 0
-107 -125 0
-108 -110 0
-109 -111 0
-108 -112 0
-109 -113 0
-108 -114 0
-109 -115 0
-108 -116 0
-109 -117 0
-108 -118 0
-109 -119 0
-108 -120 0
-109 -121 0
-108 -122 0
-109 -124 0
-108 -123 0
-109 -125 0
-110 -112 0
-111 -113 0
-110 -114 0
-111 -115 0
-110 -116 0
-111 -117 0
-110 -118 0
-111 -119 0
-110 -120 0
-111 -121 0
-110 -122 0
-111 -124 0
-110 -123 0
-111 -125 0
-112 -114 0
-113 -115 0
-112 -116 0
-113 -117 0
-112 -118 0
-113 -119 0
-112 -120 0
-113 -121 0
-112 -122 0
-113 -124 0
-112 -123 0
-113 -125 0
-114 -116 0
-115 -117 0
-114 -118 0
-115 -119 0
-114 -120 0
-115 -121 0
-114 -122 0
-115 -124 0
-114 -123 0
-115 -125 0
-116 -118 0
-117 -119 0
-116 -120 0
-117 -121 0
-116 -122 0
-117 -124 0
-116 -123 0
-117 -125 0
-118 -120 0
-119 -121 0
-118 -122 0
-119 -124 0
-118 -123 0
-119 -125 0
-120 -122 0
-121 -124 0
-120 -123 0
-121 -125 0
-122 -123 0
-124 -125 0
-126 0
-127 0
-128 0
-129 0
-130 0
-131 0
-132 0
-133 0
-134 0
-135 0
